000 000 000 000 000 000 000 000 -99 -99 -99 -99 000 -99 -99 -99 000 000 -99 000 000 000 -99 -99 000 000 -99 000 000 -99 -99
000 000 000 000 000 000 000 000 -99 -99 -99 -99 -99 -99 000 000 000 000 -99 000 000 000 000 -99 000 000 -99 000 000 -99 -99
000 000 000 000 000 000 000 000 000 -99 -99 -99 -99 -99 000 000 000 000 -99 -99 -99 -99 000 000 000 000 003 002 001 013 -99
000 000 000 000 000 000 000 000 000 -99 -99 -99 -99 -99 000 000 -99 -99 -99 -99 -99 -99 000 000 000 001 001 000 000 -99 -99
000 000 000 000 000 000 000 000 000 -99 -99 -99 000 000 000 000 -99 -99 -99 -99 002 000 000 000 000 -99 000 000 -99 001 -99
000 000 000 000 000 000 000 000 000 000 -99 -99 000 000 000 000 -99 -99 -99 -99 000 000 000 000 -99 -99 -99 -99 -99 -99 000
000 000 000 000 000 000 000 000 000 000 -99 -99 000 000 000 -99 -99 -99 -99 -99 000 000 000 -99 -99 -99 -99 -99 -99 -99 -99
000 000 000 000 000 000 000 000 000 000 000 000 000 000 -99 -99 000 000 000 -99 000 -99 000 -99 -99 -99 -99 -99 -99 -99 -99
-99 000 000 000 000 -99 000 000 000 000 000 000 -99 -99 -99 -99 -99 000 000 -99 000 -99 -99 -99 -99 -99 -99 -99 -99 -99 -99
000 000 000 000 000 -99 -99 000 000 000 000 000 -99 -99 -99 -99 000 000 000 -99 000 000 -99 -99 -99 -99 -99 -99 -99 000 000
000 000 000 000 000 -99 000 000 000 000 000 000 -99 -99 -99 000 -99 000 000 -99 000 000 -99 -99 -99 000 -99 -99 -99 000 000
000 000 000 000 000 000 000 000 000 000 000 000 -99 -99 -99 000 -99 000 000 000 -99 -99 -99 -99 000 -99 -99 -99 -99 000 000
000 000 000 000 000 000 000 000 000 000 000 000 -99 -99 -99 000 000 000 000 -99 -99 -99 -99 000 000 -99 -99 -99 -99 000 000
000 000 000 000 000 000 000 000 000 -99 -99 000 000 -99 -99 -99 000 000 000 000 -99 -99 -99 000 000 000 -99 000 -99 -99 000
000 000 000 000 000 000 000 000 000 -99 -99 -99 -99 000 -99 -99 000 000 000 -99 -99 -99 -99 000 000 000 000 000 000 -99 -99
000 -99 000 000 000 000 000 000 -99 -99 -99 -99 -99 000 -99 -99 -99 000 000 -99 -99 -99 -99 000 000 000 000 000 000 000 -99
-99 -99 -99 -99 -99 000 000 000 -99 -99 -99 -99 -99 000 000 -99 -99 000 000 -99 -99 -99 -99 000 000 000 000 000 000 000 000
000 -99 -99 -99 -99 -99 000 000 000 -99 -99 -99 -99 -99 000 -99 000 000 000 -99 -99 000 000 -99 000 000 000 -99 000 000 000
000 000 000 -99 -99 -99 000 000 000 -99 -99 000 -99 -99 000 -99 000 000 000 -99 -99 000 000 -99 000 000 -99 -99 -99 000 000
000 000 000 000 -99 -99 000 000 000 000 000 000 -99 -99 000 -99 000 000 000 000 000 000 000 -99 000 000 -99 -99 -99 -99 -99
000 000 000 000 000 000 -99 000 000 000 -99 -99 -99 -99 -99 -99 000 000 000 000 000 000 000 -99 -99 -99 -99 -99 -99 -99 -99
000 000 000 000 000 000 000 000 000 000 -99 -99 -99 000 000 000 000 000 000 000 000 000 000 -99 -99 -99 -99 -99 -99 -99 -99
000 000 000 000 000 000 000 000 000 000 -99 -99 -99 000 000 000 000 000 000 000 000 000 000 -99 -99 -99 -99 -99 -99 -99 -99
000 000 000 000 -99 000 000 000 -99 -99 -99 -99 000 000 000 000 000 000 000 000 000 000 000 -99 -99 -99 -99 -99 -99 -99 -99
000 000 000 000 -99 000 000 000 -99 000 -99 -99 000 000 000 000 000 000 000 000 000 000 000 -99 -99 -99 -99 -99 -99 -99 -99
000 000 000 000 -99 000 000 000 000 000 -99 -99 000 000 000 000 000 000 000 000 000 -99 -99 -99 -99 -99 -99 -99 -99 -99 000
000 000 000 000 -99 000 000 000 000 000 -99 -99 -99 000 000 000 000 000 000 000 000 000 -99 -99 -99 -99 -99 -99 -99 -99 000
000 -99 -99 -99 000 000 000 000 000 000 -99 -99 -99 -99 000 000 000 000 000 -99 000 000 -99 -99 -99 -99 -99 -99 -99 -99 000
000 -99 000 000 000 000 -99 000 000 000 -99 -99 -99 -99 000 000 000 -99 000 -99 000 000 -99 -99 -99 -99 -99 -99 -99 -99 000
000 000 000 000 000 000 -99 000 000 000 000 -99 -99 -99 000 000 000 000 000 000 -99 000 -99 -99 -99 -99 -99 -99 -99 -99 -99
000 000 000 000 000 000 000 000 000 000 000 -99 -99 000 000 000 000 000 000 000 -99 000 -99 -99 -99 -99 -99 -99 -99 -99 000
000 000 000 000 000 000 000 000 000 -99 -99 -99 -99 000 000 000 000 000 000 -99 -99 -99 000 000 -99 -99 -99 -99 -99 -99 000
000 000 000 000 000 000 000 000 000 -99 -99 -99 -99 000 000 000 000 000 000 -99 -99 -99 000 000 -99 -99 -99 -99 -99 000 000
000 000 000 -99 000 000 000 000 000 000 000 000 -99 000 000 -99 000 -99 -99 000 -99 000 000 000 -99 -99 000 000 000 000 000
000 000 000 000 -99 -99 -99 -99 -99 -99 -99 -99 -99 -99 000 -99 -99 -99 -99 000 000 000 000 000 000 000 000 000 000 000 000
000 000 000 000 000 -99 000 000 -99 -99 000 003 002 000 000 000 -99 -99 000 -99 -99 000 000 000 000 000 000 000 000 000 000
000 000 000 000 000 000 000 000 -99 -99 000 001 -99 000 -99 -99 -99 -99 000 000 000 000 000 000 000 000 000 000 000 000 000
-99 000 000 000 000 000 000 000 -99 000 000 000 000 000 -99 -99 -99 -99 -99 -99 000 000 000 000 000 000 000 000 000 000 -99
000 000 000 000 000 000 000 -99 000 000 000 000 000 000 000 -99 000 000 -99 -99 000 000 -99 000 000 000 000 000 000 000 -99
000 000 000 000 000 000 000 -99 000 000 000 000 -99 000 000 000 000 000 -99 000 000 -99 -99 000 000 000 000 -99 000 000 -99
000 000 -99 000 -99 000 000 000 -99 000 000 -99 -99 000 000 000 000 000 000 000 -99 -99 -99 000 000 -99 -99 -99 -99 000 -99
-99 -99 -99 -99 -99 000 000 000 000 000 000 000 000 000 000 000 000 000 -99 000 000 -99 -99 000 000 -99 -99 -99 -99 -99 -99
-99 -99 -99 -99 -99 000 000 000 -99 000 000 000 000 000 000 000 000 000 000 000 000 -99 000 000 000 000 -99 -99 -99 -99 -99
000 000 -99 -99 000 000 000 000 000 000 000 000 000 000 000 000 -99 -99 000 000 000 -99 -99 -99 000 000 -99 000 -99 -99 -99
000 000 -99 -99 000 000 000 000 000 000 000 000 000 000 000 000 000 000 -99 000 000 -99 -99 000 000 -99 000 000 -99 -99 -99
000 -99 -99 -99 000 000 -99 000 000 000 000 000 000 000 000 000 000 000 -99 000 000 -99 -99 -99 000 -99 000 000 -99 -99 -99
-99 -99 -99 -99 -99 -99 -99 000 000 000 000 000 000 000 000 -99 -99 -99 000 000 -99 -99 000 -99 -99 -99 000 -99 -99 -99 -99
-99 -99 -99 -99 -99 -99 -99 000 000 000 000 000 000 000 000 000 -99 000 000 -99 000 -99 000 000 -99 -99 -99 000 -99 -99 -99
-99 -99 -99 -99 -99 -99 -99 -99 000 000 000 000 000 000 000 -99 -99 000 000 -99 -99 000 000 -99 -99 -99 -99 000 -99 -99 -99
-99 -99 -99 -99 -99 -99 -99 000 000 -99 000 000 000 000 000 -99 -99 000 -99 -99 -99 000 000 -99 -99 -99 -99 000 -99 -99 -99
-99 -99 -99 -99 -99 -99 -99 -99 -99 -99 -99 000 000 -99 -99 -99 -99 -99 -99 -99 -99 -99 -99 -99 -99 -99 -99 -99 -99 -99 -99
-99 -99 -99 -99 -99 -99 -99 -99 -99 -99 -99 -99 -99 -99 -99 -99 -99 000 000 000 000 -99 -99 -99 -99 -99 -99 -99 -99 -99 -99
-99 -99 -99 -99 -99 -99 -99 -99 -99 -99 -99 -99 -99 -99 -99 -99 -99 -99 000 -99 -99 -99 -99 -99 -99 -99 -99 -99 -99 -99 -99
-99 -99 -99 -99 -99 -99 -99 -99 -99 -99 -99 -99 -99 -99 -99 -99 -99 -99 -99 -99 -99 -99 -99 -99 -99 -99 -99 -99 -99 -99 -99
-99 -99 -99 -99 -99 -99 -99 -99 -99 000 -99 -99 -99 -99 -99 -99 -99 -99 -99 -99 -99 -99 -99 -99 -99 -99 -99 -99 -99 -99 -99
